benchmarks_CP/INST_36x36/35/inst36x36_35_46.dzn
S=6;
start=[|
-1,	3,	-1,	19,	-1,	6,	-1,	1,	-1,	33,	29,	-1,	-1,	26,	23,	-1,	-1,	-1,	-1,	-1,	17,	-1,	21,	2,	-1,	20,	-1,	-1,	-1,	5,	11,	-1,	28,	34,	9,	-1|
20,	8,	14,	-1,	31,	36,	24,	21,	-1,	-1,	-1,	-1,	27,	7,	35,	-1,	-1,	29,	-1,	-1,	30,	-1,	22,	-1,	-1,	-1,	-1,	-1,	-1,	-1,	-1,	-1,	32,	-1,	10,	-1|
-1,	-1,	-1,	-1,	15,	23,	-1,	-1,	-1,	-1,	-1,	-1,	-1,	-1,	-1,	8,	25,	3,	-1,	-1,	-1,	16,	12,	-1,	-1,	-1,	4,	-1,	-1,	29,	-1,	2,	-1,	-1,	7,	-1|
7,	-1,	9,	-1,	18,	-1,	-1,	-1,	20,	14,	-1,	-1,	-1,	-1,	-1,	-1,	-1,	-1,	-1,	36,	-1,	-1,	-1,	5,	-1,	-1,	-1,	34,	-1,	-1,	-1,	4,	-1,	-1,	-1,	-1|
34,	-1,	25,	-1,	-1,	-1,	-1,	-1,	-1,	-1,	-1,	-1,	20,	-1,	-1,	-1,	22,	21,	4,	-1,	-1,	-1,	-1,	3,	-1,	36,	6,	35,	-1,	14,	29,	-1,	-1,	-1,	5,	-1|
-1,	22,	-1,	-1,	-1,	-1,	-1,	-1,	36,	-1,	-1,	18,	-1,	34,	-1,	-1,	-1,	-1,	-1,	23,	28,	-1,	-1,	-1,	-1,	-1,	-1,	-1,	-1,	-1,	-1,	15,	25,	-1,	-1,	20|
-1,	36,	-1,	-1,	8,	-1,	-1,	-1,	-1,	-1,	-1,	-1,	-1,	-1,	-1,	-1,	12,	-1,	-1,	2,	33,	29,	-1,	-1,	5,	3,	-1,	-1,	26,	6,	-1,	31,	-1,	-1,	-1,	-1|
-1,	-1,	-1,	-1,	-1,	-1,	-1,	33,	9,	-1,	-1,	-1,	16,	-1,	-1,	-1,	8,	23,	-1,	-1,	25,	36,	19,	7,	-1,	22,	-1,	-1,	-1,	18,	-1,	-1,	4,	-1,	-1,	-1|
10,	31,	-1,	34,	5,	11,	-1,	18,	-1,	-1,	-1,	-1,	-1,	33,	-1,	-1,	-1,	-1,	15,	-1,	21,	13,	-1,	-1,	14,	4,	17,	-1,	-1,	16,	8,	-1,	1,	7,	-1,	-1|
13,	-1,	-1,	-1,	-1,	-1,	-1,	-1,	16,	-1,	-1,	-1,	-1,	-1,	34,	-1,	-1,	-1,	-1,	-1,	-1,	-1,	-1,	-1,	-1,	19,	15,	12,	-1,	11,	-1,	-1,	-1,	-1,	6,	-1|
23,	9,	20,	32,	-1,	16,	-1,	-1,	-1,	24,	-1,	34,	15,	21,	-1,	-1,	-1,	-1,	27,	-1,	6,	-1,	14,	4,	-1,	8,	28,	-1,	-1,	-1,	-1,	-1,	-1,	12,	3,	29|
22,	-1,	-1,	-1,	-1,	18,	-1,	-1,	-1,	-1,	-1,	-1,	-1,	-1,	19,	-1,	20,	-1,	-1,	-1,	-1,	-1,	8,	16,	-1,	35,	25,	-1,	-1,	-1,	27,	-1,	-1,	-1,	-1,	-1|
-1,	-1,	-1,	-1,	-1,	-1,	-1,	-1,	-1,	3,	-1,	22,	-1,	2,	10,	19,	-1,	33,	-1,	34,	32,	30,	-1,	-1,	8,	-1,	-1,	-1,	-1,	-1,	24,	-1,	16,	26,	14,	-1|
-1,	-1,	-1,	18,	4,	33,	34,	-1,	-1,	-1,	-1,	16,	-1,	15,	-1,	31,	7,	-1,	2,	-1,	36,	14,	-1,	-1,	-1,	6,	22,	-1,	-1,	-1,	23,	-1,	-1,	21,	-1,	-1|
-1,	20,	24,	-1,	-1,	-1,	14,	-1,	29,	-1,	-1,	4,	-1,	-1,	32,	-1,	-1,	12,	9,	-1,	-1,	10,	-1,	-1,	-1,	-1,	13,	-1,	-1,	-1,	-1,	34,	-1,	-1,	8,	-1|
15,	10,	27,	31,	25,	30,	-1,	-1,	-1,	-1,	-1,	23,	-1,	36,	-1,	3,	-1,	17,	16,	21,	-1,	5,	-1,	28,	12,	-1,	-1,	11,	14,	-1,	-1,	-1,	35,	19,	-1,	-1|
-1,	-1,	36,	-1,	2,	-1,	-1,	5,	-1,	30,	28,	-1,	4,	-1,	24,	-1,	-1,	-1,	-1,	-1,	-1,	-1,	-1,	20,	-1,	-1,	31,	-1,	-1,	-1,	-1,	-1,	-1,	-1,	11,	-1|
32,	-1,	34,	-1,	-1,	29,	-1,	-1,	-1,	10,	19,	8,	22,	35,	-1,	-1,	-1,	-1,	-1,	3,	-1,	-1,	-1,	-1,	-1,	2,	-1,	30,	-1,	-1,	-1,	-1,	12,	-1,	-1,	6|
-1,	-1,	4,	33,	-1,	-1,	-1,	-1,	-1,	-1,	-1,	1,	11,	-1,	-1,	-1,	36,	-1,	28,	-1,	-1,	23,	-1,	-1,	15,	30,	-1,	-1,	-1,	-1,	-1,	-1,	-1,	-1,	17,	-1|
31,	12,	30,	-1,	-1,	-1,	32,	-1,	3,	-1,	-1,	-1,	23,	16,	-1,	27,	4,	19,	-1,	-1,	8,	-1,	-1,	-1,	-1,	-1,	-1,	14,	35,	17,	-1,	1,	15,	-1,	-1,	10|
-1,	-1,	-1,	-1,	14,	-1,	-1,	8,	-1,	-1,	16,	-1,	30,	1,	-1,	-1,	-1,	-1,	-1,	35,	-1,	27,	11,	12,	-1,	-1,	-1,	-1,	-1,	-1,	13,	-1,	-1,	-1,	-1,	-1|
9,	19,	-1,	2,	-1,	-1,	-1,	17,	15,	28,	-1,	-1,	-1,	-1,	12,	-1,	-1,	-1,	-1,	-1,	-1,	-1,	-1,	14,	-1,	-1,	-1,	-1,	-1,	4,	-1,	-1,	-1,	-1,	27,	-1|
-1,	-1,	-1,	-1,	-1,	-1,	-1,	12,	33,	23,	-1,	-1,	-1,	-1,	-1,	13,	-1,	-1,	-1,	-1,	-1,	-1,	-1,	-1,	11,	29,	-1,	6,	27,	22,	-1,	-1,	3,	-1,	-1,	19|
-1,	-1,	23,	-1,	-1,	-1,	7,	-1,	-1,	-1,	-1,	-1,	32,	25,	17,	-1,	15,	-1,	-1,	-1,	3,	-1,	2,	9,	-1,	12,	-1,	-1,	-1,	-1,	-1,	8,	-1,	28,	36,	-1|
-1,	-1,	-1,	-1,	-1,	-1,	-1,	-1,	-1,	-1,	-1,	-1,	-1,	13,	4,	10,	-1,	-1,	-1,	-1,	-1,	-1,	28,	-1,	-1,	-1,	-1,	36,	-1,	12,	-1,	17,	-1,	-1,	33,	15|
-1,	2,	-1,	-1,	29,	-1,	9,	-1,	10,	20,	6,	-1,	-1,	-1,	-1,	-1,	19,	-1,	23,	-1,	34,	-1,	1,	17,	3,	-1,	-1,	-1,	-1,	-1,	-1,	-1,	30,	14,	28,	-1|
-1,	-1,	3,	-1,	-1,	-1,	-1,	-1,	-1,	17,	-1,	-1,	31,	12,	-1,	-1,	-1,	-1,	-1,	6,	29,	-1,	9,	33,	-1,	-1,	-1,	-1,	-1,	-1,	4,	7,	-1,	20,	-1,	8|
-1,	-1,	8,	-1,	-1,	-1,	-1,	-1,	24,	-1,	33,	13,	-1,	-1,	-1,	-1,	-1,	-1,	-1,	27,	-1,	12,	-1,	-1,	28,	-1,	32,	-1,	-1,	-1,	-1,	-1,	29,	-1,	-1,	-1|
-1,	-1,	-1,	-1,	-1,	12,	-1,	-1,	-1,	-1,	-1,	-1,	-1,	-1,	6,	-1,	-1,	-1,	-1,	-1,	-1,	-1,	7,	13,	9,	-1,	-1,	29,	31,	-1,	-1,	-1,	-1,	-1,	22,	24|
36,	-1,	18,	-1,	-1,	-1,	-1,	31,	4,	-1,	-1,	-1,	-1,	32,	-1,	29,	-1,	28,	-1,	24,	20,	-1,	-1,	8,	-1,	-1,	-1,	17,	33,	-1,	-1,	-1,	13,	1,	34,	35|
-1,	5,	-1,	-1,	-1,	-1,	-1,	-1,	-1,	-1,	12,	-1,	-1,	-1,	29,	-1,	27,	8,	-1,	-1,	24,	7,	23,	-1,	-1,	34,	35,	-1,	17,	25,	-1,	-1,	-1,	-1,	-1,	3|
-1,	-1,	-1,	15,	-1,	-1,	-1,	-1,	28,	-1,	9,	-1,	-1,	-1,	-1,	11,	10,	35,	-1,	13,	18,	-1,	-1,	30,	-1,	-1,	-1,	-1,	-1,	-1,	34,	36,	-1,	8,	-1,	-1|
25,	7,	10,	-1,	-1,	27,	-1,	-1,	-1,	-1,	4,	-1,	12,	-1,	14,	-1,	-1,	-1,	-1,	-1,	-1,	17,	-1,	34,	-1,	-1,	20,	-1,	-1,	30,	-1,	-1,	24,	-1,	21,	-1|
-1,	-1,	11,	36,	34,	31,	8,	-1,	-1,	-1,	-1,	7,	19,	17,	-1,	9,	-1,	-1,	35,	12,	16,	-1,	-1,	-1,	-1,	10,	2,	13,	5,	-1,	-1,	-1,	-1,	-1,	-1,	-1|
2,	18,	-1,	-1,	-1,	4,	-1,	-1,	-1,	-1,	-1,	-1,	-1,	6,	-1,	-1,	28,	-1,	8,	9,	-1,	26,	-1,	-1,	-1,	-1,	16,	-1,	-1,	-1,	14,	35,	-1,	-1,	29,	-1|
8,	-1,	-1,	-1,	-1,	-1,	-1,	-1,	34,	-1,	-1,	-1,	2,	-1,	16,	-1,	-1,	18,	-1,	29,	14,	25,	32,	-1,	-1,	-1,	12,	1,	-1,	-1,	20,	10,	-1,	15,	-1,	-1|];
